(assert (forall ((pkt_0_4_6_0  Int  )(state_group_0_state_0_5_7_0  Int  )(state_group_0_state_1_6_8_0  Int  )) (let ((_n0 state_group_0_state_1_6_8_0 ))
(let ((_n1 state_group_0_state_0_5_7_0 ))
(let ((_n2 true ))
(let ((_n3 (+   _n1   (ite  _n2  1 0) ) ))
(let ((_n4 (ite (=  _n0  0)  _n3   _n1  ) ))
(let ((_n5 999 ))
(let ((_n6 (=   _n1   _n5 ) ))
(let ((_n7 pkt_0_4_6_0 ))
(let ((_n8 false ))
(let ((_n9 (ite (=  _n1  999)  (ite  _n8  1 0)   _n7  ) ))
(let ((_n10 (-  _n9 )))
(let ((_n11 (ite (=  _n1  999)  (ite  _n8  1 0)   _n0  ) ))
(let ((_n12 (+   _n11   _n10 ) ))
(let ((_n13 (=   _n12   (ite  _n2  1 0) ) ))
(let ((_n14 (not  _n13 ) ))
(let ((_n15 (not  _n6 ) ))
(let ((_n16 (and   _n15   _n14 ) ))
(let ((_n17 (not  _n16 ) ))
(let ((_n18 (or   _n17   _n6 ) ))
(let ((_n19 (ite  _n18   (ite  _n8  1 0)   _n0  ) ))
(let ((_n20 (=   _n19   (ite  _n8  1 0) ) ))
(let ((_n21 (ite  _n18   _n8   _n20  ) ))
(let ((_n22 (not  _n21 ) ))
(let ((_n23 (or   _n22   _n18 ) ))
(let ((_n24 (not  _n23 ) ))
(let ((_n25 (+   _n1   (ite  _n24  1 0) ) ))
(let ((_n26 (ite (=  (ite  _n21  1 0)  1)  _n25   _n1  ) ))
(let ((_n27 (ite (=  (ite  _n16  1 0)  1)  _n26   _n1  ) ))
(let ((_n28 (ite (=  _n1  999)  _n0   (ite  _n8  1 0)  ) ))
(let ((_n29 (=   _n28   (ite  _n8  1 0) ) ))
(let ((_n30 (ite (=  _n1  999)  _n29   _n8  ) ))
(let ((_n31 (and   _n30   _n6 ) ))
(let ((_n32 997 ))
(let ((_n33 (ite  _n31   _n32   (ite  _n8  1 0)  ) ))
(let ((_n34 3 ))
(let ((_n35 (ite  _n31   _n34   (ite  _n8  1 0)  ) ))
(let ((_n36 (+   _n35   _n33 ) ))
(let ((_n37 (ite  _n31   _n36   (ite  _n8  1 0)  ) ))
(let ((_n38 (ite  _n31   (ite  _n8  1 0)   _n1  ) ))
(let ((_n39 (+   _n38   _n37 ) ))
(let ((_n40 (ite (=  (ite  _n30  1 0)  1)  _n39   _n1  ) ))
(let ((_n41 (ite (=  (ite  _n6  1 0)  1)  _n40   _n27  ) ))
(let ((_n42 (=   _n41   _n4 ) ))
(let ((_n44 (ite (=  _n1  999)  (ite  _n2  1 0)   _n0  ) ))
(let ((_n45 (ite (=  _n0  0)  _n44   _n0  ) ))
(let ((_n46 (+   _n0   (ite  _n31  1 0) ) ))
(let ((_n47 (ite (=  (ite  _n30  1 0)  1)  _n46   _n0  ) ))
(let ((_n48 (ite (=  (ite  _n6  1 0)  1)  _n47   _n0  ) ))
(let ((_n49 (=   _n48   _n45 ) ))
(implies  (and (and (>= state_group_0_state_1_6_8_0 0) (< state_group_0_state_1_6_8_0 1024 ))  (and (and (>= state_group_0_state_0_5_7_0 0) (< state_group_0_state_0_5_7_0 1024 ))  (and (>= pkt_0_4_6_0 0) (< pkt_0_4_6_0 1024 )) ) )   (and  _n42  _n49 )  ))))))))))))))))))))))))))))))))))))))))))))))))))))
(check-sat)
(get-model)
(exit)